language ESSENCE' 1.0
letting avatarInitRow be 5
letting avatarInitCol be 3
letting numBlocks be 1
letting blocksInitRow be [4]
letting blocksInitCol be [3]
letting blocksGoalRow be [3]
letting blocksGoalCol be [3]
letting steps be 1
letting gridInit be [[0, 0, 0, 0, 0, 0],
                     [0, 0, 0, 0, 0, 0],
                     [0, 0, 2, 0, 0, 0],
                     [0, 0, 2, 0, 0, 0],
                     [0, 0, 2, 0, 0, 0],
                     [0, 0, 0, 0, 0, 0]]
